

*************************************************************

   NEOS Server Version 6.0
   Job#     : 15888958
   Password : eiBwWoTU
   User     : 
   Solver   : milp:HiGHS:AMPL
   Start    : 2025-04-15 14:04:32
   End      : 2025-04-15 14:04:34
   Host     : prod-sub-1.neos-server.org

   Disclaimer:

   This information is provided without any express or
   implied warranty. In particular, there is no warranty
   of any kind concerning the fitness of this
   information for any particular purpose.

   Announcements:
*************************************************************
You are using the solver highsampl.
Checking ampl.mod for highsampl_options...
Checking ampl.com for highsampl_options...
Executing AMPL.
processing data.
processing commands.
Executing on prod-exec-6.neos-server.org
C = 9

set N := 1 2 3 4 5 6 7;

W [*] :=
1  2
2  3
3  6
4  7
5  5
6  9
7  4
;

subject to C_capacity:
	2*X[1] + 3*X[2] + 6*X[3] + 7*X[4] + 5*X[5] + 9*X[6] + 4*X[7] <= 9;

maximize objective_function:
	2*X[1] + 3*X[2] + 6*X[3] + 7*X[4] + 5*X[5] + 9*X[6] + 4*X[7];


"option presolve 10;" used, but "option presolve 2;" would suffice.
7 variables, all binary
1 constraint, all linear; 7 nonzeros
	1 inequality constraint
1 linear objective; 7 nonzeros.

HiGHS 1.7.0:   tech:outlev = 1
Running HiGHS 1.7.0 (git hash: 50670fd): Copyright (c) 2024 HiGHS under MIT licence terms
Coefficient ranges:
  Matrix [2e+00, 9e+00]
  Cost   [2e+00, 9e+00]
  Bound  [1e+00, 1e+00]
  RHS    [9e+00, 9e+00]
Presolving model
1 rows, 7 cols, 7 nonzeros  0s
1 rows, 4 cols, 4 nonzeros  0s
1 rows, 4 cols, 4 nonzeros  0s
Objective function is integral with scale 1

Solving MIP model with:
   1 rows
   4 cols (2 binary, 2 integer, 0 implied int., 0 continuous)
   4 nonzeros

        Nodes      |    B&B Tree     |            Objective Bounds              |  Dynamic Constraints |       Work      
     Proc. InQueue |  Leaves   Expl. | BestBound       BestSol              Gap |   Cuts   InLp Confl. | LpIters     Time

         0       0         0   0.00%   27              -inf                 inf        0      0      0         0     0.0s
 T       0       0         0   0.00%   27              9                200.00%        0      0      0         0     0.0s

Solving report
  Status            Optimal
  Primal bound      9
  Dual bound        9
  Gap               0% (tolerance: 0.01%)
  Solution status   feasible
                    9 (objective)
                    0 (bound viol.)
                    0 (int. viol.)
                    0 (row viol.)
  Timing            0.00 (total)
                    0.00 (presolve)
                    0.00 (postsolve)
  Nodes             1
  LP iterations     0 (total)
                    0 (strong br.)
                    0 (separation)
                    0 (heuristics)
HiGHS 1.7.0: optimal solution; objective 9
0 simplex iterations
1 branching nodes
objective_function = 9

X [*] :=
1  0
2  0
3  0
4  0
5  0
6  1
7  0
;

NEOS Server Home

